260
60
144
244
21
415
348
675
600
704
168
30
88
424
8
352
210
228
10
384
600
42
297
608
290
132
356
49
455
590
126
828
540
560
45
62
248
235
558
204
165
192
6
153
21
210
657
78
162
40
445
180
70
63
720
318
12
588
276
360
142
396
80
94
315
78
810
144
300
40
12
6
486
4
270
189
180
720
308
238
222
372
14
240
45
648
702
435
186
200
765
240
164
530
120
182
890
240
164
87
